
  12    4
  10   10   10   10

   0   0   0   0   0   5 2 3 4 7 11 
   1  10  10  10  10   3 10 9 5 
   7  10  10  10  10   2 9 5 
   5  10  10  10  10   2 6 5 
   6  10  10  10  10   1 8 
   3  10  10  10  10   1 8 
   1  10  10  10  10   1 8 
   7  10  10  10  10   1 12
   9  10  10  10  10   1 12
   7  10  10  10  10   1 12
   2  10  10  10  10   1 12
   0   0   0   0   0   0 
